Problem:    idrocarburi
Rows:       32
Columns:    15
Non-zeros:  77
Status:     OPTIMAL
Objective:  z = 7166.666667 (MAXimum)

   No.   Row name   St   Activity     Lower bound   Upper bound    Marginal
------ ------------ -- ------------- ------------- ------------- -------------
     1 quantita_massima_sostanza[A]
                    NU          3000                        3000       1.16667 
     2 quantita_massima_sostanza[B]
                    NU          2000                        2000           1.5 
     3 quantita_massima_sostanza[C]
                    NU          4000                        4000      0.166667 
     4 quantita_massima_sostanza[D]
                    B              0                        1000 
     5 total_production[Super]
                    NS             0            -0             =       1.33333 
     6 total_production[Normale]
                    NS             0            -0             =      0.333333 
     7 total_production[Verde]
                    NS             0            -0             =     -0.666667 
     8 lower_bound[A,Super]
                    B           1100            -0               
     9 lower_bound[A,Normale]
                    B           1900            -0               
    10 lower_bound[A,Verde]
                    B              0            -0               
    11 lower_bound[B,Super]
                    NL             0            -0                    -3.33333 
    12 lower_bound[B,Normale]
                    NL             0            -0                    -3.33333 
    13 lower_bound[B,Verde]
                    B              0            -0               
    14 lower_bound[C,Super]
                    B           1100            -0               
    15 lower_bound[C,Normale]
                    B           2900            -0               
    16 lower_bound[C,Verde]
                    B              0            -0               
    17 lower_bound[D,Super]
                    B              0            -0               
    18 lower_bound[D,Normale]
                    B              0            -0               
    19 lower_bound[D,Verde]
                    B              0            -0               
    20 upper_bound[A,Super]
                    NU             0                          -0         < eps
    21 upper_bound[A,Normale]
                    B       -766.667                          -0 
    22 upper_bound[A,Verde]
                    B              0                          -0 
    23 upper_bound[B,Super]
                    B          -2200                          -0 
    24 upper_bound[B,Normale]
                    B          -4800                          -0 
    25 upper_bound[B,Verde]
                    B              0                          -0 
    26 upper_bound[C,Super]
                    B       -733.333                          -0 
    27 upper_bound[C,Normale]
                    B       -2433.33                          -0 
    28 upper_bound[C,Verde]
                    B              0                          -0 
    29 upper_bound[D,Super]
                    B       -3666.67                          -0 
    30 upper_bound[D,Normale]
                    B       -5333.33                          -0 
    31 upper_bound[D,Verde]
                    B              0                          -0 
    32 z            B        7166.67                             

   No. Column name  St   Activity     Lower bound   Upper bound    Marginal
------ ------------ -- ------------- ------------- ------------- -------------
     1 x[A,Super]   B           1100             0               
     2 x[A,Normale] B           1900             0               
     3 x[A,Verde]   B              0             0               
     4 x[B,Super]   B        1466.67             0               
     5 x[B,Normale] B        533.333             0               
     6 x[B,Verde]   NL             0             0                    -3.33333 
     7 x[C,Super]   B           1100             0               
     8 x[C,Normale] B           2900             0               
     9 x[C,Verde]   NL             0             0                       < eps
    10 x[D,Super]   NL             0             0                   -0.833333 
    11 x[D,Normale] NL             0             0                   -0.833333 
    12 x[D,Verde]   NL             0             0                   -0.833333 
    13 y[Super]     B        3666.67             0               
    14 y[Normale]   B        5333.33             0               
    15 y[Verde]     NL             0             0                   -0.666667 

Karush-Kuhn-Tucker optimality conditions:

KKT.PE: max.abs.err = 0.00e+000 on row 0
        max.rel.err = 0.00e+000 on row 0
        High quality

KKT.PB: max.abs.err = 0.00e+000 on row 0
        max.rel.err = 0.00e+000 on row 0
        High quality

KKT.DE: max.abs.err = 4.44e-016 on column 4
        max.rel.err = 6.06e-017 on column 13
        High quality

KKT.DB: max.abs.err = 7.11e-017 on row 20
        max.rel.err = 7.11e-017 on row 20
        High quality

End of output
